% Instance for pentominoes model generated using https://github.com/zayenz/minizinc-pentominoes-generator
% Instance generated for board size 10 with 5 tiles using 4711 as seed
% Generated board
%    1133333333
%    1113333333
%    1113333333
%    1115533333
%    1115533333
%    1115534444
%    1115555444
%    1155555444
%    2225555444
%    2222555544

size = 10;
tiles = 5;
expressions = [
    "( ([2 3 4 5 6]* 1{2} [2 3 4 5 6]{8} [2 3 4 5 6] 1{3} [2 3 4 5 6]{7} [2 3 4 5 6] 1{3} [2 3 4 5 6]{7} [2 3 4 5 6] 1{3} [2 3 4 5 6]{7} [2 3 4 5 6] 1{3} [2 3 4 5 6]{7} [2 3 4 5 6] 1{3} [2 3 4 5 6]{7} [2 3 4 5 6] 1{3} [2 3 4 5 6]{7} [2 3 4 5 6] 1{2} [2 3 4 5 6]*) | ([2 3 4 5 6]* 1{8} [2 3 4 5 6] [2 3 4 5 6]{2} 1{8} [2 3 4 5 6] [2 3 4 5 6]{3} 1{6} [2 3 4 5 6]*) | ([2 3 4 5 6]* 1{2} [2 3 4 5 6] [2 3 4 5 6]{7} 1{3} [2 3 4 5 6] [2 3 4 5 6]{7} 1{3} [2 3 4 5 6] [2 3 4 5 6]{7} 1{3} [2 3 4 5 6] [2 3 4 5 6]{7} 1{3} [2 3 4 5 6] [2 3 4 5 6]{7} 1{3} [2 3 4 5 6] [2 3 4 5 6]{7} 1{3} [2 3 4 5 6] [2 3 4 5 6]{8} 1{2} [2 3 4 5 6]*) | ([2 3 4 5 6]* 1{6} [2 3 4 5 6]{3} [2 3 4 5 6] 1{8} [2 3 4 5 6]{2} [2 3 4 5 6] 1{8} [2 3 4 5 6]*) | ([2 3 4 5 6]* 1{8} [2 3 4 5 6]{2} [2 3 4 5 6] 1{8} [2 3 4 5 6]{2} [2 3 4 5 6] [2 3 4 5 6]{1} 1{6} [2 3 4 5 6]*) | ([2 3 4 5 6]* 1{6} [2 3 4 5 6]{1} [2 3 4 5 6] [2 3 4 5 6]{2} 1{8} [2 3 4 5 6] [2 3 4 5 6]{2} 1{8} [2 3 4 5 6]*) )",
    "( ([1 3 4 5 6]* 2{3} [1 3 4 5 6]{7} [1 3 4 5 6] 2{4} [1 3 4 5 6]*) | ([1 3 4 5 6]* 2{2} [1 3 4 5 6]{8} [1 3 4 5 6] 2{2} [1 3 4 5 6]{8} [1 3 4 5 6] 2{2} [1 3 4 5 6]{8} [1 3 4 5 6] 2{1} [1 3 4 5 6]*) | ([1 3 4 5 6]* 2{4} [1 3 4 5 6] [1 3 4 5 6]{7} 2{3} [1 3 4 5 6]*) | ([1 3 4 5 6]* 2{1} [1 3 4 5 6] [1 3 4 5 6]{8} 2{2} [1 3 4 5 6] [1 3 4 5 6]{8} 2{2} [1 3 4 5 6] [1 3 4 5 6]{8} 2{2} [1 3 4 5 6]*) | ([1 3 4 5 6]* 2{3} [1 3 4 5 6] [1 3 4 5 6]{6} 2{4} [1 3 4 5 6]*) | ([1 3 4 5 6]* 2{2} [1 3 4 5 6] [1 3 4 5 6]{8} 2{2} [1 3 4 5 6] [1 3 4 5 6]{8} 2{2} [1 3 4 5 6] [1 3 4 5 6]{9} 2{1} [1 3 4 5 6]*) | ([1 3 4 5 6]* 2{4} [1 3 4 5 6]{6} [1 3 4 5 6] 2{3} [1 3 4 5 6]*) | ([1 3 4 5 6]* 2{1} [1 3 4 5 6]{9} [1 3 4 5 6] 2{2} [1 3 4 5 6]{8} [1 3 4 5 6] 2{2} [1 3 4 5 6]{8} [1 3 4 5 6] 2{2} [1 3 4 5 6]*) )",
    "( ([1 2 4 5 6]* 3{8} [1 2 4 5 6] [1 2 4 5 6]{3} 3{7} [1 2 4 5 6] [1 2 4 5 6]{3} 3{7} [1 2 4 5 6] [1 2 4 5 6]{5} 3{5} [1 2 4 5 6] [1 2 4 5 6]{5} 3{5} [1 2 4 5 6] [1 2 4 5 6]{5} 3{1} [1 2 4 5 6]*) | ([1 2 4 5 6]* 3{1} [1 2 4 5 6] [1 2 4 5 6]{7} 3{3} [1 2 4 5 6] [1 2 4 5 6]{7} 3{3} [1 2 4 5 6] [1 2 4 5 6]{4} 3{6} [1 2 4 5 6] [1 2 4 5 6]{5} 3{5} [1 2 4 5 6] [1 2 4 5 6]{5} 3{5} [1 2 4 5 6] [1 2 4 5 6]{5} 3{5} [1 2 4 5 6] [1 2 4 5 6]{5} 3{5} [1 2 4 5 6]*) | ([1 2 4 5 6]* 3{1} [1 2 4 5 6]{5} [1 2 4 5 6] 3{5} [1 2 4 5 6]{5} [1 2 4 5 6] 3{5} [1 2 4 5 6]{5} [1 2 4 5 6] 3{7} [1 2 4 5 6]{3} [1 2 4 5 6] 3{7} [1 2 4 5 6]{3} [1 2 4 5 6] 3{8} [1 2 4 5 6]*) | ([1 2 4 5 6]* 3{5} [1 2 4 5 6]{5} [1 2 4 5 6] 3{5} [1 2 4 5 6]{5} [1 2 4 5 6] 3{5} [1 2 4 5 6]{5} [1 2 4 5 6] 3{5} [1 2 4 5 6]{5} [1 2 4 5 6] 3{6} [1 2 4 5 6]{4} [1 2 4 5 6] 3{3} [1 2 4 5 6]{7} [1 2 4 5 6] 3{3} [1 2 4 5 6]{7} [1 2 4 5 6] 3{1} [1 2 4 5 6]*) | ([1 2 4 5 6]* 3{8} [1 2 4 5 6]{2} [1 2 4 5 6] 3{7} [1 2 4 5 6]{3} [1 2 4 5 6] 3{7} [1 2 4 5 6]{3} [1 2 4 5 6] 3{5} [1 2 4 5 6]{5} [1 2 4 5 6] 3{5} [1 2 4 5 6]{5} [1 2 4 5 6] [1 2 4 5 6]{4} 3{1} [1 2 4 5 6]*) | ([1 2 4 5 6]* 3{1} [1 2 4 5 6]{9} [1 2 4 5 6] 3{3} [1 2 4 5 6]{7} [1 2 4 5 6] 3{3} [1 2 4 5 6]{7} [1 2 4 5 6] 3{6} [1 2 4 5 6]{4} [1 2 4 5 6] 3{5} [1 2 4 5 6]{5} [1 2 4 5 6] 3{5} [1 2 4 5 6]{5} [1 2 4 5 6] 3{5} [1 2 4 5 6]{5} [1 2 4 5 6] 3{5} [1 2 4 5 6]*) | ([1 2 4 5 6]* 3{1} [1 2 4 5 6]{4} [1 2 4 5 6] [1 2 4 5 6]{5} 3{5} [1 2 4 5 6] [1 2 4 5 6]{5} 3{5} [1 2 4 5 6] [1 2 4 5 6]{3} 3{7} [1 2 4 5 6] [1 2 4 5 6]{3} 3{7} [1 2 4 5 6] [1 2 4 5 6]{2} 3{8} [1 2 4 5 6]*) | ([1 2 4 5 6]* 3{5} [1 2 4 5 6] [1 2 4 5 6]{5} 3{5} [1 2 4 5 6] [1 2 4 5 6]{5} 3{5} [1 2 4 5 6] [1 2 4 5 6]{5} 3{5} [1 2 4 5 6] [1 2 4 5 6]{4} 3{6} [1 2 4 5 6] [1 2 4 5 6]{7} 3{3} [1 2 4 5 6] [1 2 4 5 6]{7} 3{3} [1 2 4 5 6] [1 2 4 5 6]{9} 3{1} [1 2 4 5 6]*) )",
    "( ([1 2 3 5 6]* 4{4} [1 2 3 5 6] [1 2 3 5 6]{7} 4{3} [1 2 3 5 6] [1 2 3 5 6]{7} 4{3} [1 2 3 5 6] [1 2 3 5 6]{7} 4{3} [1 2 3 5 6] [1 2 3 5 6]{8} 4{2} [1 2 3 5 6]*) | ([1 2 3 5 6]* 4{1} [1 2 3 5 6]{5} [1 2 3 5 6] [1 2 3 5 6]{1} 4{4} [1 2 3 5 6]{5} [1 2 3 5 6] 4{5} [1 2 3 5 6]{5} [1 2 3 5 6] 4{5} [1 2 3 5 6]*) | ([1 2 3 5 6]* 4{2} [1 2 3 5 6]{8} [1 2 3 5 6] 4{3} [1 2 3 5 6]{7} [1 2 3 5 6] 4{3} [1 2 3 5 6]{7} [1 2 3 5 6] 4{3} [1 2 3 5 6]{7} [1 2 3 5 6] 4{4} [1 2 3 5 6]*) | ([1 2 3 5 6]* 4{5} [1 2 3 5 6] [1 2 3 5 6]{5} 4{5} [1 2 3 5 6] [1 2 3 5 6]{5} 4{4} [1 2 3 5 6]{1} [1 2 3 5 6] [1 2 3 5 6]{5} 4{1} [1 2 3 5 6]*) | ([1 2 3 5 6]* 4{4} [1 2 3 5 6]{6} [1 2 3 5 6] 4{3} [1 2 3 5 6]{7} [1 2 3 5 6] 4{3} [1 2 3 5 6]{7} [1 2 3 5 6] 4{3} [1 2 3 5 6]{7} [1 2 3 5 6] 4{2} [1 2 3 5 6]*) | ([1 2 3 5 6]* 4{1} [1 2 3 5 6]{4} [1 2 3 5 6] [1 2 3 5 6]{5} 4{4} [1 2 3 5 6]{1} [1 2 3 5 6] [1 2 3 5 6]{5} 4{5} [1 2 3 5 6] [1 2 3 5 6]{5} 4{5} [1 2 3 5 6]*) | ([1 2 3 5 6]* 4{2} [1 2 3 5 6] [1 2 3 5 6]{7} 4{3} [1 2 3 5 6] [1 2 3 5 6]{7} 4{3} [1 2 3 5 6] [1 2 3 5 6]{7} 4{3} [1 2 3 5 6] [1 2 3 5 6]{6} 4{4} [1 2 3 5 6]*) | ([1 2 3 5 6]* 4{5} [1 2 3 5 6]{5} [1 2 3 5 6] 4{5} [1 2 3 5 6]{5} [1 2 3 5 6] [1 2 3 5 6]{1} 4{4} [1 2 3 5 6]{5} [1 2 3 5 6] [1 2 3 5 6]{4} 4{1} [1 2 3 5 6]*) )",
    "( ([1 2 3 4 6]* 5{2} [1 2 3 4 6]{5} [1 2 3 4 6] [1 2 3 4 6]{3} 5{2} [1 2 3 4 6]{5} [1 2 3 4 6] [1 2 3 4 6]{3} 5{2} [1 2 3 4 6]{5} [1 2 3 4 6] [1 2 3 4 6]{3} 5{4} [1 2 3 4 6]{3} [1 2 3 4 6] [1 2 3 4 6]{2} 5{5} [1 2 3 4 6]{3} [1 2 3 4 6] [1 2 3 4 6]{3} 5{4} [1 2 3 4 6]{3} [1 2 3 4 6] [1 2 3 4 6]{4} 5{4} [1 2 3 4 6]*) | ([1 2 3 4 6]* 5{1} [1 2 3 4 6]{7} [1 2 3 4 6] [1 2 3 4 6]{1} 5{6} [1 2 3 4 6]{3} [1 2 3 4 6] 5{7} [1 2 3 4 6]{3} [1 2 3 4 6] 5{4} [1 2 3 4 6]{6} [1 2 3 4 6] 5{4} [1 2 3 4 6]{6} [1 2 3 4 6] 5{1} [1 2 3 4 6]*) | ([1 2 3 4 6]* 5{4} [1 2 3 4 6]{4} [1 2 3 4 6] [1 2 3 4 6]{3} 5{4} [1 2 3 4 6]{3} [1 2 3 4 6] [1 2 3 4 6]{3} 5{5} [1 2 3 4 6]{2} [1 2 3 4 6] [1 2 3 4 6]{3} 5{4} [1 2 3 4 6]{3} [1 2 3 4 6] [1 2 3 4 6]{5} 5{2} [1 2 3 4 6]{3} [1 2 3 4 6] [1 2 3 4 6]{5} 5{2} [1 2 3 4 6]{3} [1 2 3 4 6] [1 2 3 4 6]{5} 5{2} [1 2 3 4 6]*) | ([1 2 3 4 6]* 5{1} [1 2 3 4 6] [1 2 3 4 6]{6} 5{4} [1 2 3 4 6] [1 2 3 4 6]{6} 5{4} [1 2 3 4 6] [1 2 3 4 6]{3} 5{7} [1 2 3 4 6] [1 2 3 4 6]{3} 5{6} [1 2 3 4 6]{1} [1 2 3 4 6] [1 2 3 4 6]{7} 5{1} [1 2 3 4 6]*) | ([1 2 3 4 6]* 5{2} [1 2 3 4 6]{3} [1 2 3 4 6] [1 2 3 4 6]{5} 5{2} [1 2 3 4 6]{3} [1 2 3 4 6] [1 2 3 4 6]{5} 5{2} [1 2 3 4 6]{3} [1 2 3 4 6] [1 2 3 4 6]{3} 5{4} [1 2 3 4 6]{3} [1 2 3 4 6] [1 2 3 4 6]{3} 5{5} [1 2 3 4 6]{2} [1 2 3 4 6] [1 2 3 4 6]{3} 5{4} [1 2 3 4 6]{3} [1 2 3 4 6] [1 2 3 4 6]{2} 5{4} [1 2 3 4 6]*) | ([1 2 3 4 6]* 5{1} [1 2 3 4 6]{2} [1 2 3 4 6] [1 2 3 4 6]{3} 5{6} [1 2 3 4 6]{1} [1 2 3 4 6] [1 2 3 4 6]{3} 5{7} [1 2 3 4 6] [1 2 3 4 6]{6} 5{4} [1 2 3 4 6] [1 2 3 4 6]{6} 5{4} [1 2 3 4 6] [1 2 3 4 6]{9} 5{1} [1 2 3 4 6]*) | ([1 2 3 4 6]* 5{4} [1 2 3 4 6]{2} [1 2 3 4 6] [1 2 3 4 6]{3} 5{4} [1 2 3 4 6]{3} [1 2 3 4 6] [1 2 3 4 6]{2} 5{5} [1 2 3 4 6]{3} [1 2 3 4 6] [1 2 3 4 6]{3} 5{4} [1 2 3 4 6]{3} [1 2 3 4 6] [1 2 3 4 6]{3} 5{2} [1 2 3 4 6]{5} [1 2 3 4 6] [1 2 3 4 6]{3} 5{2} [1 2 3 4 6]{5} [1 2 3 4 6] [1 2 3 4 6]{3} 5{2} [1 2 3 4 6]*) | ([1 2 3 4 6]* 5{1} [1 2 3 4 6]{9} [1 2 3 4 6] 5{4} [1 2 3 4 6]{6} [1 2 3 4 6] 5{4} [1 2 3 4 6]{6} [1 2 3 4 6] 5{7} [1 2 3 4 6]{3} [1 2 3 4 6] [1 2 3 4 6]{1} 5{6} [1 2 3 4 6]{3} [1 2 3 4 6] [1 2 3 4 6]{2} 5{1} [1 2 3 4 6]*) )",
];
